%chk=benceno.chk
# opt b3lyp/3-21g geom=connectivity

Title Card Required

0 1
 C                 -0.48951046   -0.39860139    0.00000000
 C                  0.90564954   -0.39860139    0.00000000
 C                  1.60318754    0.80914961    0.00000000
 C                  0.90553354    2.01765861   -0.00119900
 C                 -0.48929146    2.01758061   -0.00167800
 C                 -1.18689246    0.80937461   -0.00068200
 H                 -1.03926946   -1.35091839    0.00045000
 H                  1.45515754   -1.35111439    0.00131500
 H                  2.70286754    0.80922961    0.00063400
 H                  1.45573354    2.96980161   -0.00125800
 H                 -1.03941346    2.96986161   -0.00263100
 H                 -2.28649646    0.80955761   -0.00086200

 1 2 1.5 6 1.5 7 1.0
 2 3 1.5 8 1.0
 3 4 1.5 9 1.0
 4 5 1.5 10 1.0
 5 6 1.5 11 1.0
 6 12 1.0
 7
 8
 9
 10
 11
 12

