# HF/STO-3G opt

Interpolated coordinates

0, 1
$mol1

