%chk=g09
%mem=8gb
%nproc=8
#n PBEPBE/Gen Pseudo=Read Scf=(Fermi,XQC,MaxCyc=500) Opt=CalcFC Freq=Raman

Title

0 1
Sn     0.000000     0.000000     0.000000
 O     0.000000     0.000000     1.871104
 C     1.798839     0.000000    -1.253535
 H     1.773299    -0.874879    -1.919504
 H     1.811177     0.916347    -1.861823
 C    -1.799199     0.004384    -1.252733
 H    -1.780899    -0.875873    -1.911841
 H    -1.805273     0.915945    -1.868232
 H     2.690571    -0.037929    -0.615450
 H    -2.690731    -0.022192    -0.613781

-H -C -N -O    0 
6-31G**
****
-Sn    0
SDD
****

-Sn    0
SDD

