# $method/3-21G freq

interpolated input

0, 1
$mol1

