# HF/3-21G opt

water

0 1
O
H 1 1.0
H 1 1.0 2 100.0

