#n svwn/3-21g opt pop=(NBO,SaveNLMOs)

water

0 1
O
H 1 1.0
H 1 1.0 2 100.0

