# HF/$basis opt

Interpolated basis set

0, 1
 O     0.0000     0.0000     0.0000
 H     0.0000     0.7593     0.5960
 H     0.0000    -0.7593     0.5960

