# HF/3-21G opt

interpolate coordinates

0, 1
$mol1

