# HF/3-21G opt

interpolated gaussian input

{charge}, 1
{mol1}

