# HF/3-21G opt

{mol0}

{charge} {spin}
{mol1}

