# HF/%basis opt

Interpolated basis and coordinates

0, 1
%mol1

