# HF/3-21G opt

{molfile}

{charge}, 1
{mol1}

