# HF/3-21G opt

{file}

{charge}, 1
{mol1}

