#n svwn/3-21g opt pop=(NBO,SaveNLMOs) geom=allcheck

