# M062X/cc-pVTZ Geom=AllCheck SCF=(XQC,Fermi) Guess=Read TD=(NStates=10) 

