Geometry = GenFormat {
37 C
C H O N S P
     1   1   1.9929000000E+00  -1.5246000000E-01   5.0038000000E-01
     2   1   3.3944900000E+00  -3.2242000000E-01   1.1984000000E-01
     3   1   4.1239100000E+00   8.1930000000E-01  -2.8735000000E-01
     4   2   3.4328700000E+00  -2.4479400000E+00   4.7193000000E-01
     5   1   4.0169700000E+00  -1.5830500000E+00   1.5168000000E-01
     6   1   5.4771800000E+00   6.9047000000E-01  -6.6527000000E-01
     7   1   6.0811200000E+00  -5.6067000000E-01  -6.3144000000E-01
     8   1   5.3525100000E+00  -1.6978500000E+00  -2.2244000000E-01
     9   2   6.0164300000E+00   1.5872800000E+00  -9.7632000000E-01
    10   2   7.1285000000E+00  -6.6602000000E-01  -9.2319000000E-01
    11   2   5.8417800000E+00  -2.6741200000E+00  -2.0025000000E-01
    12   3   1.2233900000E+00  -1.0369900000E+00   8.6969000000E-01
    13   4   1.5735600000E+00   1.1955400000E+00   4.0947000000E-01
    14   4   2.3423900000E+00   2.2702800000E+00  -2.9000000000E-03
    15   4   3.5578600000E+00   2.0939000000E+00  -3.3292000000E-01
    16   1   2.0299000000E-01   1.5539800000E+00   7.3008000000E-01
    17   2  -1.6457000000E-01   9.5445000000E-01   1.5759800000E+00
    18   2   1.9853000000E-01   2.6231700000E+00   9.6691000000E-01
    19   5  -9.3259000000E-01   1.2751900000E+00  -7.0611000000E-01
    20   6  -2.4878000000E+00   1.0973000000E-01   1.9532000000E-01
    21   3  -3.6871200000E+00   7.8805000000E-01  -6.7045000000E-01
    22   3  -2.4823600000E+00  -1.3726300000E+00  -4.9239000000E-01
    23   1  -5.0322900000E+00   2.1512000000E-01  -6.1704000000E-01
    24   2  -5.0021600000E+00  -7.7834000000E-01  -1.0918800000E+00
    25   2  -5.3238900000E+00   9.7250000000E-02   4.4009000000E-01
    26   1  -5.9575200000E+00   1.1656200000E+00  -1.3485900000E+00
    27   2  -5.6448100000E+00   1.2899100000E+00  -2.3955900000E+00
    28   2  -6.9822800000E+00   7.6253000000E-01  -1.3384800000E+00
    29   2  -5.9673400000E+00   2.1530500000E+00  -8.6517000000E-01
    30   1  -1.7525600000E+00  -2.4905900000E+00   1.1103000000E-01
    31   2  -2.1976900000E+00  -2.6942300000E+00   1.0982500000E+00
    32   2  -7.0211000000E-01  -2.1956900000E+00   2.5408000000E-01
    33   1  -1.8877500000E+00  -3.6723200000E+00  -8.2777000000E-01
    34   2  -1.3598500000E+00  -4.5394600000E+00  -4.0097000000E-01
    35   2  -2.9431300000E+00  -3.9486300000E+00  -9.7112000000E-01
    36   2  -1.4466600000E+00  -3.4480900000E+00  -1.8100100000E+00
    37   5  -2.5915500000E+00   1.3372000000E-01   2.1427900000E+00
}

Driver = VelocityVerlet {

  MovedAtoms = 1:-1
  KeepStationary = Yes
  ConvergentForcesOnly = No
  TimeStep [fs] = 2.0
  Thermostat = NoseHoover {
    ChainLength = 4
    CouplingStrength [cm^-1] = 1000
    Temperature [Kelvin] = TemperatureProfile {
      constant 100000 600.0
    }
  }
  Masses {
    Mass {
      Atoms = H
      MassPerAtom [amu] = 3.0
    }
  }
}

Hamiltonian = DFTB {
  ThirdOrderFull = Yes
  DampXH = Yes
  DampXHExponent = 4.0
  SCC = Yes
# Charge = 0 #ajustar de acuerdo a la carga de la molécula
  MaxSCCIterations = 100
  Eigensolver = RelativelyRobust {}
  SlaterKosterFiles = Type2FileNames {
    Prefix = "./"
    Separator = "-"
    Suffix = ".skf"
    LowerCaseTypeName = No
  }
  MaxAngularMomentum {
  C="p"
  H="s"
  O="p"
  N="p"
  S="d"
  P="d"
  }
  HubbardDerivs {
    C = -0.1492
    H = -0.1857
    O = -0.1575
    N = -0.1535
    S = -0.11
    P = -0.14
  }
  Dispersion = LennardJones {
    Parameters = UFFParameters {}
  }
  Filling = Fermi {
    Temperature [K] = 600.0
  }
}

