Geometry = GenFormat {
36  C
C  N  H
  1   1      1.852882      1.368094     -0.374483
  2   2      3.115936      1.438905     -0.739778
  3   2      1.504664      0.169949      0.197706
  4   1      2.639830     -0.614108      0.200380
  5   1      2.903114     -1.913105      0.651086
  6   1      4.205107     -2.387515      0.489553
  7   1      5.212200     -1.592503     -0.099300
  8   1      4.946364     -0.298562     -0.544158
  9   1      3.643650      0.200115     -0.394260
 10   3      0.550200     -0.033585      0.514301
 11   1      0.824191      2.448703     -0.547413
 12   2      0.048960      2.638911      0.683932
 13   1     -1.384381      2.754585      0.556719
 14   3      0.430183      3.391387      1.248625
 15   1     -2.047325      1.415849      0.331547
 16   2     -1.486937      0.229873      0.442693
 17   2     -3.378769      1.337174     -0.013048
 18   1     -3.704381     -0.005869     -0.128150
 19   1     -4.889382     -0.675618     -0.446623
 20   1     -4.833198     -2.069465     -0.472352
 21   1     -3.638306     -2.764405     -0.190150
 22   1     -2.461708     -2.088132      0.127190
 23   1     -2.496862     -0.686835      0.159409
 24   3     -3.999702      2.122507     -0.160052
 25   3     -1.536703     -2.624655      0.345674
 26   3      5.720873      0.321934     -0.999356
 27   3     -3.638980     -3.855875     -0.221932
 28   3     -5.734928     -2.634785     -0.716800
 29   3     -5.815573     -0.140517     -0.666168
 30   3      2.127701     -2.530214      1.110169
 31   3      6.218726     -2.003612     -0.206218
 32   3      4.451031     -3.397118      0.827013
 33   3      1.344307      3.360570     -0.886559
 34   3      0.129948      2.155688     -1.354787
 35   3     -1.777296      3.171239      1.500862
 36   3     -1.727535      3.445990     -0.249278
}

Driver = ConjugateGradient {
  OutputPrefix = "finalgeom"
  MovedAtoms = 1:-1
  ConvergentForcesOnly = Yes
  AppendGeometries = Yes
  MaxSteps = 400
}

Hamiltonian = DFTB {
  SCC = Yes
  ThirdOrderFull = Yes
  DampXH = Yes
  DampXHExponent = 4.0
  Eigensolver = RelativelyRobust {}
  SlaterKosterFiles = Type2FileNames {
    Prefix = "./"
    Separator = "-"
    Suffix = ".skf"
    LowerCaseTypeName = No
  }
  MaxAngularMomentum {
    H = "s"
    C = "p"
    N = "p"
  }
  HubbardDerivs {
    H = -0.1857
    C = -0.1492
    N = -0.1535
  }
  Dispersion = LennardJones {
    Parameters = UFFParameters {}
  }
  SpinPolarisation = Colinear {
    UnpairedElectrons = 0
  }
  SpinConstants = {
    H = {
      -0.072
    }
    C = {
      -0.031  -0.025  -0.025  -0.023
    }
    N = {
      -0.033  -0.027  -0.027  -0.026
    }
  }
  Filling = Fermi {
    Temperature [K] = 300
  }
}

Options {}

ParserOptions {
  ParserVersion = 4
}

