Geometry = GenFormat {
43  C
C  N  H  O
  1   1     -2.066738     -0.861560     -0.924391
  2   2     -3.382488     -0.793846     -0.913465
  3   2     -1.447225      0.285043     -0.488625
  4   1     -2.451828      1.176583     -0.164639
  5   1     -2.439642      2.483691      0.336521
  6   1     -3.677178      3.091389      0.550269
  7   1     -3.661067      0.483321     -0.444151
  8   1     -4.894186      1.114768     -0.220823
  9   1     -4.886769      2.417119      0.275528
 10   3     -0.426759      0.397583     -0.389123
 11   1     -1.279470     -2.058231     -1.401339
 12   2     -0.063513     -2.327836     -0.657486
 13   1      1.223011     -2.140523     -1.265021
 14   1     -0.162533     -3.090009      0.573722
 15   1      2.008385     -0.939036     -0.771155
 16   2      1.499223      0.199652     -0.347671
 17   2      3.383368     -0.923395     -0.778744
 18   1      3.794605      0.320635     -0.323330
 19   1      5.053987      0.892620     -0.119975
 20   1      5.077053      2.200520      0.364488
 21   1      3.886081      2.907219      0.634813
 22   1      2.634750      2.328878      0.431029
 23   1      2.589538      1.014729     -0.056108
 24   3      3.980313     -1.696343     -1.044069
 25   1     -0.498597     -2.266542      1.820348
 26   4     -0.447111     -3.171763      2.916830
 27   3     -0.773817     -2.709649      3.700614
 28   3      1.713322      2.874897      0.640722
 29   3     -5.826094      0.587664     -0.434636
 30   3      3.950006      3.929974      1.011889
 31   3      6.038611      2.688092      0.537679
 32   3      5.976976      0.347837     -0.328662
 33   3     -1.506101      3.009123      0.549123
 34   3     -5.833882      2.930648      0.456677
 35   3     -3.711040      4.112368      0.937638
 36   3      0.797242     -3.601772      0.761524
 37   3     -1.967980     -2.921724     -1.367505
 38   3     -1.014435     -1.906827     -2.463173
 39   3      1.093662     -2.024965     -2.356709
 40   3     -1.501649     -1.812125      1.711732
 41   3     -0.928123     -3.883048      0.469331
 42   3      0.232907     -1.441330      1.926538
 43   3      1.861759     -3.037066     -1.127009
}

Driver = ConjugateGradient {
  OutputPrefix = "finalgeom"
  MovedAtoms = 1:-1
  ConvergentForcesOnly = Yes
  AppendGeometries = Yes
  MaxSteps = 1600
}

Hamiltonian = DFTB {
  SCC = Yes
  Eigensolver = RelativelyRobust {}
  SlaterKosterFiles = Type2FileNames {
    Prefix = "./"
    Separator = "-"
    Suffix = ".skf"
    LowerCaseTypeName = No
  }
  MaxAngularMomentum {
    H = "s"
    C = "p"
    N = "p"
    O = "p"
  }
  Dispersion = LennardJones {
    Parameters = UFFParameters {}
  }
  SpinPolarisation = Colinear {
    UnpairedElectrons = 0
  }
  SpinConstants = {
    H = {
      -0.072
    }
    C = {
      -0.031  -0.025  -0.025  -0.023
    }
    N = {
      -0.033  -0.027  -0.027  -0.026
    }
    O = {
      -0.035  -0.030  -0.030  -0.028
    }
  }
  Filling = Fermi {
    Temperature [K] = 300
  }
}

Options {}

ParserOptions {
  ParserVersion = 4
}

