Geometry = GenFormat {
20  C
O  C  H
  1   1      0.093000     -1.107000      0.644000
  2   1     -1.344000      0.089000     -1.386000
  3   1      0.839000      2.390000      0.284000
  4   1     -3.893000     -0.204000     -0.333000
  5   1      3.022000      0.570000     -0.606000
  6   1      1.992000     -2.156000     -0.138000
  7   2     -0.340000      0.262000      0.785000
  8   2     -1.606000      0.459000     -0.033000
  9   2      0.821000      1.027000      0.289000
 10   2     -2.746000     -0.408000      0.486000
 11   2      1.808000      0.227000     -0.105000
 12   2      1.354000     -1.148000      0.111000
 13   3     -0.515000      0.461000      1.848000
 14   3     -1.916000      1.509000     -0.043000
 15   3     -2.499000     -1.474000      0.435000
 16   3     -3.001000     -0.146000      1.518000
 17   3     -1.100000     -0.852000     -1.399000
 18   3      0.004000      2.696000      0.678000
 19   3     -4.602000     -0.764000      0.026000
 20   3      3.502000     -0.257000     -0.786000
}

Driver = VelocityVerlet {
  OutputPrefix = "finalgeom"
  MovedAtoms = 1:-1
  KeepStationary = Yes
  ConvergentForcesOnly = No
  TimeStep [fs] = 2.0
  Thermostat = NoseHoover {
    ChainLength = 3
    CouplingStrength [cm^-1] = 1000
    Temperature [Kelvin] = TemperatureProfile {
      constant 1 300.0
      linear 25000 800.0
      linear 75000 10.0
    }
  }
  Masses {
    Mass {
      Atoms = H
      MassPerAtom [amu] = 1.0
    }
  }
}

Hamiltonian = DFTB {
  SCC = Yes
  Eigensolver = RelativelyRobust {}
  SlaterKosterFiles = Type2FileNames {
    Prefix = "./"
    Separator = "-"
    Suffix = ".skf"
    LowerCaseTypeName = No
  }
  MaxAngularMomentum {
    H = "s"
    C = "p"
    O = "p"
  }
  Dispersion = LennardJones {
    Parameters = UFFParameters {}
  }
}


