# HF/3-21G opt

{mol0}

{charge}, 1
{mol1}

